 C 
 1.0000000000000000
    35.0000000000000000    0.0000000000000000    0.0000000000000000
     0.0000000000000000   30.0000000000000000    0.0000000000000000
     0.0000000000000000    0.0000000000000000    8.5489997859999995
 C  
 160
Cartesian
 11.3103999999999996  9.0504499999999997  1.4056500000000001
 11.3342299999999998  9.1180000000000003  5.6039000000000003
 11.2631399999999999  9.0912299999999995  2.7725900000000001
 11.4187600000000007  9.1390300000000000  7.0419400000000003
 10.6699400000000004 10.1627399999999994  3.4445000000000001
 10.6429799999999997 10.1171299999999995  7.8431400000000000
 10.7354099999999999 10.1587200000000006  0.7550500000000000
 10.6205099999999995 10.1513600000000004  4.9489500000000000
  9.7874400000000001 10.9656199999999995  1.3651400000000000
  9.8052600000000005 10.9727200000000007  5.7041100000000000
  9.8137299999999996 11.0417600000000000  2.8400500000000002
  9.7767400000000002 10.9151500000000006  7.1750900000000000
  8.8160500000000006 11.7613299999999992  3.4738500000000001
  8.7346699999999995 11.5703399999999998  7.8395200000000003
  8.7481899999999992 11.7247299999999992  0.7080000000000000
  8.7429500000000004 11.6650700000000001  4.9634400000000003
  7.5209599999999996 11.9704899999999999  1.3662099999999999
  7.5907000000000000 12.0868400000000005  5.6345799999999997
  7.5633699999999999 11.9176599999999997  2.7659300000000000
  7.5759299999999996 11.9710699999999992  7.0704599999999997
  6.3774300000000004 11.9692600000000002  3.4456699999999998
  6.3003099999999996 11.9132599999999993  7.6704400000000001
  6.3002000000000002 12.0915099999999995  0.5424400000000000
  6.2713400000000004 11.9231400000000001  4.9941700000000004
  5.2001999999999997 11.6022300000000005  1.2900799999999999
  5.1585400000000003 11.5228900000000003  5.6255899999999999
  5.2498100000000001 11.5348400000000009  2.8171900000000001
  5.0994900000000003 11.6440400000000004  7.0029599999999999
  4.3947900000000004 10.5836900000000007  3.6014900000000001
  4.1932499999999999 10.7967099999999991  7.7949599999999997
  4.2233099999999997 10.7680399999999992  0.5971200000000000
  4.2255599999999998 10.7034599999999998  4.9991099999999999
  3.6877200000000001  9.6188400000000005  1.4009300000000000
  3.5715599999999998  9.6335700000000006  5.7029600000000000
  3.6151900000000001  9.5408500000000007  2.8423900000000000
  3.6008000000000000  9.6136199999999992  7.0712900000000003
  3.3749500000000001  8.3851399999999998  3.5696599999999998
  3.4155899999999999  8.4227000000000007  7.7584999999999997
  3.4615200000000002  8.3341600000000007  0.6909600000000000
  3.3954700000000000  8.3549100000000003  5.0003399999999996
  3.5322800000000001  7.0937900000000003  1.4403699999999999
  3.6443900000000000  7.2139100000000003  5.6714200000000003
  3.5151400000000002  7.0485199999999999  2.9047000000000001
  3.7492000000000001  7.1714900000000004  7.0472799999999998
  4.1557700000000004  6.0413699999999997  3.5991900000000001
  4.2691400000000002  6.0457299999999998  7.7724299999999999
  4.1637399999999998  6.0267600000000003  0.7395400000000000
  4.1659300000000004  6.1135200000000003  4.9743100000000000
  5.0257500000000004  5.1165500000000002  1.4503200000000001
  5.1342900000000000  5.2238400000000000  5.6488500000000004
  5.0316999999999998  5.1100500000000002  2.8486500000000001
  5.2428499999999998  5.2505600000000001  7.0873100000000004
  6.2065500000000000  4.5723900000000004  3.5645300000000000
  6.2537200000000004  4.5112800000000002  7.7823799999999999
  6.1147700000000000  4.4268599999999996  0.7052600000000000
  6.2137900000000004  4.4805599999999997  5.0498799999999999
  7.3364700000000003  4.1666900000000000  1.4081600000000001
  7.3797899999999998  4.2008400000000004  5.7239199999999997
  7.4115399999999996  4.2395600000000000  2.7779099999999999
  7.3858899999999998  4.1976699999999996  7.1848599999999996
  8.6003200000000000  4.2206500000000000  3.5205000000000002
  8.6972500000000004  4.2484299999999999  7.7761399999999998
  8.6667799999999993  4.3392200000000001  0.6705000000000000
  8.6671399999999998  4.2107500000000000  4.9434699999999996
  9.7482299999999995  4.7823900000000004  1.3726600000000000
  9.8189799999999998  4.7976500000000000  5.5978199999999996
  9.7621900000000004  4.7733299999999996  2.8502800000000001
  9.8727099999999997  4.7616399999999999  7.0246500000000003
 10.7797300000000007  5.5527100000000003  3.5148799999999998
 10.8576700000000006  5.5728700000000000  7.7946099999999996
 10.7498600000000000  5.5718100000000002  0.7245000000000000
 10.9170200000000008  5.5338599999999998  4.8610899999999999
 11.1546500000000002  6.6910999999999996  1.4165000000000001
 11.3077500000000004  6.7172700000000001  5.7465000000000002
 11.2596500000000006  6.6968600000000000  2.8226599999999999
 11.3590999999999998  6.6645000000000003  7.1367700000000003
 11.5236999999999998  7.8615000000000004  3.5086300000000001
 11.5504499999999997  7.9081700000000001  7.8105500000000001
 11.5512999999999995  7.9023899999999996  0.7204400000000000
 11.6189000000000000  7.9014800000000003  4.9141500000000002
 23.1368100000000005  7.7602200000000003  0.2612600000000000
 23.1753000000000000  7.8624299999999998  4.5180499999999997
 23.1345199999999984  7.8174900000000003  1.6370700000000000
 23.2177299999999995  7.8882199999999996  5.8984500000000004
 22.6810499999999990  8.9249600000000004  2.4020199999999998
 22.7690799999999989  9.0242299999999993  6.6010000000000000
 22.9882799999999996  9.0550200000000007  8.0313400000000001
 22.6798299999999990  8.9224800000000002  3.7849400000000002
 22.3291800000000009 10.1054200000000005  0.1288300000000000
 22.0640000000000001 10.0552700000000002  4.4077700000000002
 22.2447799999999987 10.0873699999999999  1.6782900000000001
 22.1120400000000004 10.1011399999999991  5.8281599999999996
 21.2217500000000001 10.8356200000000005  2.3439500000000000
 21.1895400000000009 10.9155099999999994  6.6218800000000000
 21.3140700000000010 10.8862199999999998  8.0855300000000003
 21.2702199999999984 11.0709499999999998  3.7896999999999998
 20.1262700000000017 11.3112200000000005  0.2442600000000000
 20.1352699999999984 11.6772799999999997  4.4670899999999998
 20.1038800000000002 11.3848900000000004  1.7519899999999999
 20.0753999999999984 11.4262499999999996  5.9410999999999996
 18.9084000000000003 11.6287099999999999  2.4259400000000002
 18.8616099999999989 11.4911700000000003  6.7938400000000003
 18.8404200000000017 11.3325099999999992  8.2019500000000001
 18.8449199999999983 11.6738700000000009  3.8748999999999998
 17.7006599999999992 11.1332599999999999  0.4569100000000000
 17.7870300000000015 11.1912099999999999  4.6178400000000002
 17.7218799999999987 10.9763699999999993  1.7943300000000000
 17.7538799999999988 11.0508699999999997  6.0123300000000004
 16.7619000000000007 10.2137399999999996  2.4797300000000000
 16.6778200000000005 10.5098199999999995  6.7922700000000003
 16.6951700000000010 10.4449699999999996  8.2245399999999993
 16.8167599999999986 10.3088899999999999  3.9273099999999999
 15.9402500000000007  9.4032199999999992  0.3086300000000000
 16.0583099999999988  9.3735999999999997  4.6444000000000001
 15.9447299999999998  9.2628000000000004  1.6994499999999999
 15.8132500000000000  9.5646599999999999  6.0248900000000001
 15.3707100000000008  8.2910400000000006  2.4585300000000001
 15.2315400000000007  8.4090299999999996  6.7105899999999998
 15.2925000000000004  8.2466200000000001  8.2291699999999999
 15.3834199999999992  8.3421699999999994  3.8790499999999999
 15.0944000000000003  7.0152000000000001  0.3155100000000000
 15.0141600000000004  7.1650900000000002  4.5281099999999999
 15.2487100000000009  7.0204500000000003  1.7342200000000001
 15.0902399999999997  7.1235600000000003  5.9878999999999998
 15.3856500000000000  5.8556200000000000  2.4302299999999999
 15.3345900000000004  5.9538700000000002  6.7173699999999998
 15.4310100000000006  5.9200400000000002  8.1340500000000002
 15.2585499999999996  5.8774300000000004  3.8398599999999998
 16.0730100000000000  4.7992800000000004  0.2157100000000000
 15.9147200000000009  4.8125200000000001  4.6141600000000000
 16.0818800000000017  4.8807099999999997  1.7148099999999999
 16.0082200000000014  4.9392100000000001  6.0455899999999998
 16.9577300000000015  4.0972099999999996  2.4654300000000000
 16.9345999999999997  4.0904800000000003  6.7043999999999997
 17.0509699999999995  4.1062399999999997  8.1224500000000006
 16.8387500000000010  4.0749599999999999  3.9234599999999999
 18.2132100000000001  3.7650800000000002  0.3744000000000000
 18.0897299999999994  3.7988700000000000  4.5339400000000003
 18.2271299999999989  3.8896799999999998  1.7722800000000001
 18.1313700000000004  3.6890499999999999  6.0184400000000000
 19.4559500000000014  3.7419500000000001  2.5549499999999998
 19.2926700000000011  3.8034800000000000  6.6629600000000000
 19.4373399999999990  3.7379199999999999  8.1302800000000008
 19.3783299999999983  3.9361700000000002  3.9330500000000002
 20.6057400000000008  4.0777999999999999  0.2458500000000000
 20.5922499999999999  3.9815600000000000  4.6278899999999998
 20.5786100000000012  4.1748300000000000  1.7531099999999999
 20.5894100000000009  4.0213500000000000  5.9743399999999998
 21.7111499999999999  4.5723900000000004  2.4838800000000001
 21.5840600000000009  4.7530500000000000  6.7337499999999997
 21.6587199999999989  4.7433199999999998  8.1751600000000000
 21.7587200000000003  4.4994800000000001  3.9529399999999999
 22.7166999999999994  5.3679399999999999  0.3489200000000000
 22.6001499999999993  5.4433900000000000  4.5704599999999997
 22.5430799999999998  5.3462399999999999  1.7690699999999999
 22.5874400000000009  5.4643499999999996  5.9799800000000003
 22.9195600000000006  6.7008200000000002  2.4787900000000000
 23.1905900000000003  6.5961400000000001  6.6200900000000003
 23.3075599999999987  6.4555899999999999  8.1080199999999998
 23.0926800000000014  6.6109499999999999  3.8715299999999999
