SC113 file generated by VASPKIT
 1.000000
   35.0000000000000000    0.0000000000000000    0.0000000000000000
    0.0000000000000000   35.0000000000000000    0.0000000000000000
    0.0000000000000000    0.0000000000000000   12.8310874072126921
   C 
  228
Direct
    0.5726289230405006    0.4216643284414308    0.9999276189906225      C1
    0.5726289230405006    0.4216643284414308    0.3332609523239558      C2
    0.5726289230405006    0.4216643284414308    0.6665942856572892      C3
    0.5726289500122856    0.4216643339223689    0.1111840428694552      C4
    0.5726289500122856    0.4216643339223689    0.4445173762027885      C5
    0.5726289500122856    0.4216643339223689    0.7778507095361218      C6
    0.5608782462138993    0.4549202845998881    0.1665917880703764      C7
    0.5608782462138993    0.4549202845998881    0.4999251214037098      C8
    0.5608782462138993    0.4549202845998881    0.8332584547370432      C9
    0.5438062645746368    0.4857870611992721    0.9999270884327411     C10
    0.5438062645746368    0.4857870611992721    0.3332604217660744     C11
    0.5438062645746368    0.4857870611992721    0.6665937550994077     C12
    0.5438062872350137    0.4857870752480373    0.1111845855491480     C13
    0.5438062872350137    0.4857870752480373    0.4445179188824814     C14
    0.5438062872350137    0.4857870752480373    0.7778512522158146     C15
    0.5218867644392154    0.5134262252396379    0.1665930418448388     C16
    0.5218867644392154    0.5134262252396379    0.4999263751781721     C17
    0.5218867644392154    0.5134262252396379    0.8332597085115054     C18
    0.5608782199198395    0.4549202714399003    0.2778532357950522     C19
    0.5608782199198395    0.4549202714399003    0.6111865691283855     C20
    0.5608782199198395    0.4549202714399003    0.9445199024617188     C21
    0.4957106369093260    0.5370703629465455    0.9999271281953710     C22
    0.4957106369093260    0.5370703629465455    0.3332604615287043     C23
    0.4957106369093260    0.5370703629465455    0.6665937948620375     C24
    0.4957106512723972    0.5370703872666914    0.1111845580874230     C25
    0.4957106512723972    0.5370703872666914    0.4445178914207564     C26
    0.4957106512723972    0.5370703872666914    0.7778512247540896     C27
    0.4660051333246992    0.5560949520340301    0.1665922064507981     C28
    0.4660051333246992    0.5560949520340301    0.4999255397841313     C29
    0.4660051333246992    0.5560949520340301    0.8332588731174647     C30
    0.5218867411946652    0.5134262061339034    0.2778519930641421     C31
    0.5218867411946652    0.5134262061339034    0.6111853263974755     C32
    0.5218867411946652    0.5134262061339034    0.9445186597308088     C33
    0.4335754558780145    0.5699753158118996    0.9999252674276184     C34
    0.4335754558780145    0.5699753158118996    0.3332586007609517     C35
    0.4335754558780145    0.5699753158118996    0.6665919340942850     C36
    0.4335754629714474    0.5699753444556965    0.1111864038965154     C37
    0.4335754629714474    0.5699753444556965    0.4445197372298486     C38
    0.4335754629714474    0.5699753444556965    0.7778530705631820     C39
    0.3993003623860677    0.5783032526307144    0.1665957807034886     C40
    0.3993003623860677    0.5783032526307144    0.4999291140368218     C41
    0.3993003623860677    0.5783032526307144    0.8332624473701552     C42
    0.4660051176442164    0.5560949287240626    0.2778528362299817     C43
    0.4660051176442164    0.5560949287240626    0.6111861695633150     C44
    0.4660051176442164    0.5560949287240626    0.9445195028966482     C45
    0.3641257052802083    0.5808912716722651    0.9999284321946411     C46
    0.3641257052802083    0.5808912716722651    0.3332617655279744     C47
    0.3641257052802083    0.5808912716722651    0.6665950988613076     C48
    0.3641257051968234    0.5808913006473440    0.1111832133407560     C49
    0.3641257051968234    0.5808913006473440    0.4445165466740892     C50
    0.3641257051968234    0.5808913006473440    0.7778498800074225     C51
    0.3290009265941233    0.5776677847294451    0.1665945401567841     C52
    0.3290009265941233    0.5776677847294451    0.4999278734901175     C53
    0.3290009265941233    0.5776677847294451    0.8332612068234508     C54
    0.3993003561714368    0.5783032260672549    0.2778492362699179     C55
    0.3993003561714368    0.5783032260672549    0.6111825696032511     C56
    0.3993003561714368    0.5783032260672549    0.9445159029365844     C57
    0.2948877241055359    0.5686932589808368    0.9999231400302999     C58
    0.2948877241055359    0.5686932589808368    0.3332564733636332     C59
    0.2948877241055359    0.5686932589808368    0.6665898066969665     C60
    0.2948877163179047    0.5686932863069626    0.1111884841284583     C61
    0.2948877163179047    0.5686932863069626    0.4445218174617915     C62
    0.2948877163179047    0.5686932863069626    0.7778551507951248     C63
    0.2627205813156852    0.5542269227629805    0.1665930402000794     C64
    0.2627205813156852    0.5542269227629805    0.4999263735334127     C65
    0.2627205813156852    0.5542269227629805    0.8332597068667460     C66
    0.3290009341795309    0.5776677568600445    0.2778504422681521     C67
    0.3290009341795309    0.5776677568600445    0.6111837756014855     C68
    0.3290009341795309    0.5776677568600445    0.9445171089348188     C69
    0.2333760043693278    0.5346597127421313    0.9999310162350981     C70
    0.2333760043693278    0.5346597127421313    0.3332643495684313     C71
    0.2333760043693278    0.5346597127421313    0.6665976829017646     C72
    0.2333759879566955    0.5346597362003808    0.1111806133626450     C73
    0.2333759879566955    0.5346597362003808    0.4445139466959782     C74
    0.2333759879566955    0.5346597362003808    0.7778472800293115     C75
    0.2076499300657881    0.5105425196228894    0.1665985851673524     C76
    0.2076499300657881    0.5105425196228894    0.4999319185006856     C77
    0.2076499300657881    0.5105425196228894    0.8332652518340190     C78
    0.2627205952246978    0.5542268985321213    0.2778519367494452     C79
    0.2627205952246978    0.5542268985321213    0.6111852700827787     C80
    0.2627205952246978    0.5542268985321213    0.9445186034161119     C81
    0.1862377286386189    0.4825169303236120    0.9999280267516468     C82
    0.1862377286386189    0.4825169303236120    0.3332613600849802     C83
    0.1862377286386189    0.4825169303236120    0.6665946934183135     C84
    0.1862377031587087    0.4825169452271612    0.1111836188189294     C85
    0.1862377031587087    0.4825169452271612    0.4445169521522627     C86
    0.1862377031587087    0.4825169452271612    0.7778502854855960     C87
    0.1697409345133067    0.4513410989149934    0.1665894594257131     C88
    0.1697409345133067    0.4513410989149934    0.4999227927590465     C89
    0.1697409345133067    0.4513410989149934    0.8332561260923799     C90
    0.2076499507937875    0.5105425021328790    0.2778464051376733     C91
    0.2076499507937875    0.5105425021328790    0.6111797384710067     C92
    0.2076499507937875    0.5105425021328790    0.9445130718043400     C93
    0.1585924532352982    0.4178722951937519    0.9999246039694984     C94
    0.1585924532352982    0.4178722951937519    0.3332579373028318     C95
    0.1585924532352982    0.4178722951937519    0.6665912706361652     C96
    0.1585924250767194    0.4178723030910723    0.1111870524324072     C97
    0.1585924250767194    0.4178723030910723    0.4445203857657405     C98
    0.1585924250767194    0.4178723030910723    0.7778537190990739     C99
    0.1530941637598071    0.3830302988891510    0.1665954624590855    C100
    0.1530941637598071    0.3830302988891510    0.4999287957924188    C101
    0.1530941637598071    0.3830302988891510    0.8332621291257521    C102
    0.1697409601288331    0.4513410886712108    0.2778555502121614    C103
    0.1697409601288331    0.4513410886712108    0.6111888835454947    C104
    0.1697409601288331    0.4513410886712108    0.9445222168788280    C105
    0.1534260168638995    0.3477604704884332    0.9999298702968160    C106
    0.1534260168638995    0.3477604704884332    0.3332632036301493    C107
    0.1534260168638995    0.3477604704884332    0.6665965369634826    C108
    0.1534259881008163    0.3477604668759517    0.1111817868003513    C109
    0.1534259881008163    0.3477604668759517    0.4445151201336847    C110
    0.1534259881008163    0.3477604668759517    0.7778484534670180    C111
    0.1595480315739413    0.3130279747445521    0.1665941844885709    C112
    0.1595480315739413    0.3130279747445521    0.4999275178219043    C113
    0.1595480315739413    0.3130279747445521    0.8332608511552376    C114
    0.1530941917702064    0.3830302958946502    0.2778495503703424    C115
    0.1530941917702064    0.3830302958946502    0.6111828837036758    C116
    0.1530941917702064    0.3830302958946502    0.9445162170370092    C117
    0.1713036315214397    0.2797713129056976    0.9999262550103225    C118
    0.1713036315214397    0.2797713129056976    0.3332595883436559    C119
    0.1713036315214397    0.2797713129056976    0.6665929216769892    C120
    0.1713036044984647    0.2797712990357344    0.1111853906612232    C121
    0.1713036044984647    0.2797712990357344    0.4445187239945567    C122
    0.1713036044984647    0.2797712990357344    0.7778520573278900    C123
    0.1883738195397829    0.2489030233368383    0.1665919406134924    C124
    0.1883738195397829    0.2489030233368383    0.4999252739468257    C125
    0.1883738195397829    0.2489030233368383    0.8332586072801590    C126
    0.1595480573456496    0.3130279810686122    0.2778508240172233    C127
    0.1595480573456496    0.3130279810686122    0.6111841573505566    C128
    0.1595480573456496    0.3130279810686122    0.9445174906838899    C129
    0.2102907563438869    0.2212600203374424    0.9999253146844280    C130
    0.2102907563438869    0.2212600203374424    0.3332586480177613    C131
    0.2102907563438869    0.2212600203374424    0.6665919813510945    C132
    0.2102907341971141    0.2212599999674992    0.1111863177269216    C133
    0.2102907341971141    0.2212599999674992    0.4445196510602549    C134
    0.2102907341971141    0.2212599999674992    0.7778529843935882    C135
    0.2364657420767061    0.1976127936134429    0.1665936446437821    C136
    0.2364657420767061    0.1976127936134429    0.4999269779771155    C137
    0.2364657420767061    0.1976127936134429    0.8332603113104489    C138
    0.1883738416886888    0.2489030369596155    0.2778530527923964    C139
    0.1883738416886888    0.2489030369596155    0.6111863861257296    C140
    0.1883738416886888    0.2489030369596155    0.9445197194590629    C141
    0.2661752363939536    0.1785953644840295    0.9999261418837171    C142
    0.2661752363939536    0.1785953644840295    0.3332594752170505    C143
    0.2661752363939536    0.1785953644840295    0.6665928085503837    C144
    0.2661752215308343    0.1785953404588345    0.1111854791409517    C145
    0.2661752215308343    0.1785953404588345    0.4445188124742850    C146
    0.2661752215308343    0.1785953404588345    0.7778521458076184    C147
    0.2986000764723076    0.1647166232220997    0.1665945289932125    C148
    0.2986000764723076    0.1647166232220997    0.4999278623265457    C149
    0.2986000764723076    0.1647166232220997    0.8332611956598791    C150
    0.2364657575882986    0.1976128164530870    0.2778513341130402    C151
    0.2364657575882986    0.1976128164530870    0.6111846674463735    C152
    0.2364657575882986    0.1976128164530870    0.9445180007797068    C153
    0.3328723662159658    0.1563849289421109    0.9999300811722001    C154
    0.3328723662159658    0.1563849289421109    0.3332634145055334    C155
    0.3328723662159658    0.1563849289421109    0.6665967478388668    C156
    0.3328723599816241    0.1563849018700652    0.1111815641871199    C157
    0.3328723599816241    0.1563849018700652    0.4445148975204534    C158
    0.3328723599816241    0.1563849018700652    0.7778482308537866    C159
    0.3680455072489552    0.1537922841661307    0.1665939701933827    C160
    0.3680455072489552    0.1537922841661307    0.4999273035267161    C161
    0.3680455072489552    0.1537922841661307    0.8332606368600495    C162
    0.2986000841587018    0.1647166512031962    0.2778504612132745    C163
    0.2986000841587018    0.1647166512031962    0.6111837945466079    C164
    0.2986000841587018    0.1647166512031962    0.9445171278799411    C165
    0.4031711563021849    0.1570169322923898    0.9999272674930249    C166
    0.4031711563021849    0.1570169322923898    0.3332606008263581    C167
    0.4031711563021849    0.1570169322923898    0.6665939341596916    C168
    0.4031711637008240    0.1570169034733666    0.1111844184573645    C169
    0.4031711637008240    0.1570169034733666    0.4445177517906977    C170
    0.4031711637008240    0.1570169034733666    0.7778510851240311    C171
    0.4372848930674421    0.1660029124569782    0.1665884221484604    C172
    0.4372848930674421    0.1660029124569782    0.4999217554817936    C173
    0.4372848930674421    0.1660029124569782    0.8332550888151269    C174
    0.3680455062934778    0.1537923121810234    0.2778510481407552    C175
    0.3680455062934778    0.1537923121810234    0.6111843814740885    C176
    0.3680455062934778    0.1537923121810234    0.9445177148074217    C177
    0.4694544171482854    0.1804674653974555    0.9999259655713697    C178
    0.4694544171482854    0.1804674653974555    0.3332592989047030    C179
    0.4694544171482854    0.1804674653974555    0.6665926322380362    C180
    0.4694544328339001    0.1804674421695943    0.1111857247023321    C181
    0.4694544328339001    0.1804674421695943    0.4445190580356655    C182
    0.4694544328339001    0.1804674421695943    0.7778523913689989    C183
    0.4988080311738488    0.2000206120805534    0.1665986370202930    C184
    0.4988080311738488    0.2000206120805534    0.4999319703536262    C185
    0.4988080311738488    0.2000206120805534    0.8332653036869596    C186
    0.4372848863938018    0.1660029393336622    0.2778566230113695    C187
    0.4372848863938018    0.1660029393336622    0.6111899563447029    C188
    0.4372848863938018    0.1660029393336622    0.9445232896780361    C189
    0.5245305973410639    0.2241451661214718    0.9999318929542436    C190
    0.5245305973410639    0.2241451661214718    0.3332652262875769    C191
    0.5245305973410639    0.2241451661214718    0.6665985596209103    C192
    0.5245306198615841    0.2241451504241772    0.1111797742318619    C193
    0.5245306198615841    0.2241451504241772    0.4445131075651951    C194
    0.5245306198615841    0.2241451504241772    0.7778464408985284    C195
    0.5459320548275369    0.2521788909596663    0.1665942112992752    C196
    0.5459320548275369    0.2521788909596663    0.4999275446326086    C197
    0.5459320548275369    0.2521788909596663    0.8332608779659419    C198
    0.4988080168350706    0.2000206375235238    0.2778463978533465    C199
    0.4988080168350706    0.2000206375235238    0.6111797311866799    C200
    0.4988080168350706    0.2000206375235238    0.9445130645200132    C201
    0.5624359939413208    0.2833515935253930    0.9999212359014094    C202
    0.5624359939413208    0.2833515935253930    0.3332545692347426    C203
    0.5624359939413208    0.2833515935253930    0.6665879025680760    C204
    0.5624360191023290    0.2833515827945028    0.1111904121664876    C205
    0.5624360191023290    0.2833515827945028    0.4445237454998210    C206
    0.5624360191023290    0.2833515827945028    0.7778570788331544    C207
    0.5735900818998616    0.3168182625070972    0.1665933854810462    C208
    0.5735900818998616    0.3168182625070972    0.4999267188143794    C209
    0.5735900818998616    0.3168182625070972    0.8332600521477127    C210
    0.5459320302580810    0.2521789066614750    0.2778508012964860    C211
    0.5459320302580810    0.2521789066614750    0.6111841346298194    C212
    0.5459320302580810    0.2521789066614750    0.9445174679631526    C213
    0.5790736492188397    0.3516618342195065    0.9999292549779670    C214
    0.5790736492188397    0.3516618342195065    0.3332625883113004    C215
    0.5790736492188397    0.3516618342195065    0.6665959216446337    C216
    0.5790736771479468    0.3516618292633309    0.1111823997090486    C217
    0.5790736771479468    0.3516618292633309    0.4445157330423819    C218
    0.5790736771479468    0.3516618292633309    0.7778490663757153    C219
    0.5787399763620782    0.3869276938219444    0.1665962918106065    C220
    0.5787399763620782    0.3869276938219444    0.4999296251439399    C221
    0.5787399763620782    0.3869276938219444    0.8332629584772732    C222
    0.5735900535392425    0.3168182690237880    0.2778516185858407    C223
    0.5735900535392425    0.3168182690237880    0.6111849519191741    C224
    0.5735900535392425    0.3168182690237880    0.9445182852525074    C225
    0.5787399485409744    0.3869276880784941    0.2778487179330147    C226
    0.5787399485409744    0.3869276880784941    0.6111820512663479    C227
    0.5787399485409744    0.3869276880784941    0.9445153845996812    C228
